HFSDDW
20	4	2
0	1	1	97
0	77	1	38
0	32	1	84
0	30	1	48
0	29	1	28
0	85	1	39
0	2	1	9
0	32	1	97
0	98	1	15
0	86	1	8
0	76	1	15
0	64	1	24
0	36	1	98
0	50	1	72
0	26	1	46
0	97	1	59
0	57	1	21
0	88	1	8
0	53	1	68
0	25	1	46
LBCmax: 530
RELDUE
-1	98	4	6
-1	101	2	8
-1	235	3	3
-1	69	8	8
-1	251	2	3
-1	285	4	3
-1	232	9	4
-1	69	9	6
-1	173	6	6
-1	150	6	6
-1	333	4	4
-1	309	4	9
-1	326	6	2
-1	239	7	9
-1	297	4	1
-1	327	7	9
-1	159	6	9
-1	223	1	6
-1	59	9	7
-1	158	7	4
DDW
88	108
93	109
214	256
68	70
228	274
268	302
209	255
66	72
161	185
147	153
323	343
284	334
293	359
229	249
267	327
294	360
154	164
216	230
57	61
155	161
